64936 41562
272 64441
1397 59173
46181 30734
59467 28112
53440 64992
8290 51579
32137 50642
48087 19210
21605 20039
53460 57010
50161 11277
2259 13056
45029 14516
43762 29228
12280 31920
17195 47396
26509 18778
22687 992
27646 17321
30837 59598
56479 44413
64252 30716
31173 11168
56082 2641
33479 10334
12701 792
25756 33595
30442 4594
65330 18701
20163 42223
38508 21209
22261 26030
19157 38479
29853 23087
38347 46462
24044 60714
22422 4171
34562 27882
37703 12571
602 20008
57489 50586
32333 41433
39469 4379
13426 28401
6564 26814
45101 56725
57829 47788
30995 48000
6526 33612
7941 33421
59899 28696
57947 52861
10856 6855
62001 26323
58923 58679
6443 47918
36671 58681
26888 18246
16223 8675
33734 44981
23160 6672
